 200 89 
 97 2 21 55 51 42 95 30 27 35 48 81 
 6 96 67 25 50 86 71 57 49 99 23 46 
 48 74 96 60 91 6 71 26 88 12 20 46 
 51 87 92 33 28 51 11 38 76 34 98 77 
 88 35 80 93 57 2 75 5 51 71 97 6 
 12 74 4 59 4 27 40 98 45 20 54 93 
 59 49 94 68 36 26 17 93 60 15 69 4 
 37 81 62 3 51 
 45 
 2 6 8 9 12 15 17 18 21 22 23 24 
 25 26 29 30 31 32 33 35 39 40 41 45 
 46 47 52 55 56 61 62 63 65 66 69 70 
 71 73 76 78 79 85 86 88 89 
 59 
 1 3 4 5 8 10 11 12 13 14 16 19 
 21 24 25 27 28 30 31 32 33 34 35 36 
 38 40 43 45 46 50 51 53 54 55 56 57 
 58 59 61 62 63 64 65 66 67 68 69 70 
 71 72 73 74 75 78 82 83 85 86 87 
 46 
 4 5 10 15 16 20 21 22 23 28 29 30 
 35 36 40 41 43 47 49 51 53 54 55 56 
 58 59 60 61 62 63 65 67 70 72 73 74 
 76 77 78 79 80 81 84 86 87 88 
 36 
 2 3 5 6 9 10 11 13 17 18 19 21 
 22 24 28 31 38 42 45 52 55 56 60 61 
 63 64 65 67 70 71 76 77 78 81 84 89 
 30 
 1 7 8 9 10 22 23 29 31 33 37 39 
 41 42 43 46 48 56 60 61 63 67 69 70 
 78 79 80 81 85 89 
 29 
 3 7 8 12 13 14 17 20 21 24 28 33 
 36 37 40 41 43 45 48 52 59 63 66 72 
 75 77 82 85 87 
 57 
 1 2 3 4 5 7 13 14 15 17 18 19 
 20 21 25 26 27 31 32 37 39 41 42 43 
 44 45 46 48 49 50 51 53 55 56 57 58 
 60 61 63 64 65 69 70 73 75 76 77 79 
 80 81 82 83 84 85 87 88 89 
 9 
 2 8 14 41 55 77 82 83 84 
 34 
 3 5 13 14 17 18 22 23 26 27 31 32 
 36 37 38 41 45 46 47 48 53 54 57 58 
 59 60 71 75 78 80 81 84 88 89 
 34 
 1 3 5 7 8 11 12 16 17 23 24 28 
 29 34 39 42 46 50 52 58 59 61 65 66 
 67 69 73 76 77 78 80 81 82 83 
 69 
 2 3 6 7 8 9 12 14 16 17 18 19 
 20 21 22 23 24 25 26 27 28 29 30 31 
 32 33 35 36 37 38 39 41 44 46 48 49 
 50 51 52 53 54 56 57 58 59 60 61 62 
 63 64 65 66 68 69 70 71 72 73 76 78 
 79 80 82 83 84 85 86 87 88 
 71 
 1 2 3 4 5 6 7 8 9 10 11 12 
 15 16 17 18 20 21 22 23 24 25 26 28 
 30 31 32 33 34 35 36 37 40 41 43 45 
 46 48 51 52 55 57 58 59 60 61 62 63 
 64 65 67 68 69 70 71 72 73 74 75 76 
 77 79 80 81 82 83 85 86 87 88 89 
 82 
 1 3 4 5 6 7 8 9 10 11 12 14 
 15 16 17 18 19 20 21 22 23 24 25 26 
 27 28 29 31 32 33 34 35 36 37 38 40 
 41 42 43 44 45 46 48 49 50 51 52 53 
 54 55 56 57 58 59 60 61 62 63 64 65 
 66 67 68 69 70 71 72 73 74 75 76 77 
 78 81 82 83 84 85 86 87 88 89 
 43 
 2 4 5 6 7 11 13 18 22 24 25 29 
 35 36 39 41 43 44 45 47 49 50 52 53 
 55 56 59 61 64 65 67 68 71 74 75 76 
 77 81 82 85 86 88 89 
 14 
 1 3 34 36 39 45 52 56 57 59 66 68 
 70 77 
 70 
 1 2 3 4 5 6 7 8 9 10 11 12 
 13 14 15 16 20 22 23 24 25 26 27 28 
 29 30 31 32 33 34 36 37 39 40 41 43 
 44 45 46 47 48 49 50 51 52 54 56 57 
 59 60 63 66 67 69 70 71 72 73 76 77 
 78 79 81 82 83 84 85 86 87 89 
 29 
 1 5 6 8 12 17 18 24 25 29 31 33 
 36 37 38 39 48 57 58 61 63 67 72 74 
 78 79 87 88 89 
 17 
 2 8 9 14 16 24 26 35 39 40 42 43 
 47 60 62 70 75 
 32 
 6 11 13 17 19 22 23 24 25 27 28 31 
 33 34 37 42 43 46 49 52 53 57 64 66 
 69 71 72 79 80 82 84 85 
 80 
 1 2 3 4 5 6 7 8 9 10 11 12 
 13 14 15 16 17 18 19 20 22 23 24 25 
 26 27 28 29 30 31 32 33 34 35 37 38 
 39 40 41 42 43 44 45 46 49 50 51 52 
 53 54 55 56 57 58 59 60 61 62 63 64 
 65 67 68 69 71 72 73 74 75 76 77 78 
 79 80 82 83 84 85 88 89 
 11 
 1 6 7 15 22 28 38 42 56 78 82 
 35 
 1 2 4 9 12 14 15 16 21 25 26 27 
 39 42 44 45 47 48 49 50 51 54 56 59 
 60 62 64 68 70 73 76 78 82 84 85 
 19 
 13 17 18 20 22 23 27 29 31 40 41 51 
 52 54 67 68 69 72 86 
 61 
 1 4 5 7 8 9 10 11 12 14 15 16 
 17 19 20 21 22 23 24 26 27 28 29 30 
 31 35 36 37 39 42 44 46 47 50 52 54 
 55 57 58 61 62 64 66 67 69 70 71 74 
 75 76 77 78 79 80 81 83 84 86 87 88 
 89 
 15 
 27 29 35 40 42 45 51 55 56 69 72 76 
 79 83 86 
 41 
 3 4 9 10 12 15 16 17 19 22 25 30 
 31 34 36 37 38 40 41 42 45 46 47 48 
 49 52 53 60 61 62 63 64 65 66 67 69 
 70 75 77 83 85 
 63 
 4 5 6 7 8 9 10 11 12 13 15 18 
 19 20 21 22 24 25 26 27 30 31 33 36 
 37 38 39 40 41 43 45 46 48 49 51 53 
 54 55 56 57 58 59 60 61 62 63 65 66 
 69 70 71 73 74 76 77 78 79 80 81 83 
 84 87 89 
 41 
 1 2 3 5 6 8 11 14 19 20 22 23 
 24 28 31 35 37 38 40 41 42 46 49 51 
 52 53 55 57 58 60 63 68 70 71 73 75 
 83 85 87 88 89 
 13 
 4 12 21 32 43 49 50 51 64 68 69 83 
 84 
 44 
 3 4 9 10 11 12 14 15 16 20 23 24 
 25 29 30 31 32 33 34 35 40 42 45 47 
 48 50 51 55 60 62 64 65 69 70 71 73 
 74 75 76 80 82 86 87 89 
 16 
 2 9 15 17 21 27 29 35 44 45 49 57 
 64 67 80 85 
 76 
 1 2 3 4 5 7 8 9 10 11 12 14 
 15 16 17 19 20 21 22 24 25 28 29 30 
 31 32 33 34 36 37 38 40 41 42 43 44 
 45 46 47 48 49 50 51 52 53 54 56 57 
 58 59 60 62 63 64 65 66 67 68 70 71 
 72 73 74 75 76 77 78 79 81 82 84 85 
 86 87 88 89 
 54 
 1 2 3 5 6 7 8 9 10 11 12 13 
 14 16 18 20 22 25 27 28 29 30 31 34 
 35 37 38 39 40 42 44 47 48 52 53 54 
 56 59 60 62 63 66 67 68 69 71 72 74 
 77 78 83 84 88 89 
 22 
 4 5 8 24 25 32 37 39 41 45 50 52 
 55 57 58 59 64 70 74 75 79 85 
 14 
 7 11 17 30 34 39 45 54 56 68 71 75 
 77 88 
 50 
 1 5 6 10 11 16 17 18 19 20 22 24 
 25 26 28 29 33 35 41 42 43 44 47 48 
 50 51 52 53 55 57 58 60 61 65 66 71 
 72 74 75 76 77 79 80 81 83 84 85 87 
 88 89 
 52 
 2 3 4 5 7 10 11 12 13 14 16 17 
 18 20 21 22 23 25 26 28 29 30 33 34 
 37 38 41 44 45 46 48 49 51 52 53 54 
 56 60 63 64 65 67 68 69 70 77 78 83 
 84 85 86 87 
 9 
 4 6 23 34 36 39 41 47 80 
 51 
 2 3 5 6 7 11 13 17 18 19 22 23 
 25 26 27 28 31 32 33 37 38 39 40 42 
 44 45 50 52 53 55 57 58 61 62 63 65 
 66 68 69 75 77 78 79 80 81 82 83 84 
 86 87 88 
 21 
 4 15 17 21 22 25 27 30 37 38 45 47 
 50 52 60 61 68 75 79 84 89 
 43 
 1 3 8 9 12 14 15 16 17 18 20 23 
 27 28 29 31 33 35 38 39 40 42 43 48 
 52 53 54 57 62 67 68 69 70 71 75 76 
 78 81 83 84 85 87 88 
 22 
 1 5 9 12 13 16 17 20 27 35 43 47 
 50 53 56 58 64 72 75 77 78 83 
 62 
 1 2 3 5 7 8 9 10 11 13 14 15 
 17 18 19 22 25 26 27 28 30 31 32 33 
 34 36 37 38 39 40 41 42 43 44 45 46 
 48 49 51 52 53 54 55 57 61 62 63 65 
 67 69 70 72 74 77 78 80 81 82 83 84 
 85 89 
 68 
 1 2 3 4 5 6 7 8 9 10 11 12 
 15 16 17 18 19 20 21 22 23 24 25 26 
 27 28 29 30 32 33 35 37 38 39 40 41 
 42 43 44 45 47 48 49 50 51 52 53 54 
 55 58 60 63 64 66 69 70 71 72 73 76 
 77 79 82 83 84 86 87 88 
 72 
 1 3 4 5 6 7 8 9 11 12 14 15 
 16 17 19 20 21 22 23 24 25 26 27 28 
 29 31 32 33 34 35 37 38 39 40 41 42 
 43 44 45 47 49 50 52 54 55 57 59 61 
 62 63 64 65 66 68 69 70 71 72 73 74 
 76 78 79 81 82 83 84 85 86 87 88 89 
 32 
 3 5 6 10 12 14 16 20 30 37 38 39 
 40 41 42 43 45 47 52 61 63 64 67 71 
 74 75 78 79 81 82 84 89 
 52 
 2 4 5 8 9 12 15 16 20 21 23 24 
 25 26 27 28 30 32 34 35 36 37 39 40 
 41 43 44 45 47 48 53 55 56 58 59 60 
 61 63 64 66 68 72 76 77 80 81 82 84 
 86 87 88 89 
 60 
 1 3 4 6 8 10 12 13 16 17 20 23 
 24 25 26 27 28 29 30 31 32 33 34 35 
 37 39 41 42 44 45 46 47 48 49 50 54 
 55 56 57 58 60 61 63 64 65 66 67 71 
 72 73 77 78 79 80 81 82 83 84 86 87 
 58 
 2 3 4 5 6 8 9 10 11 14 16 17 
 19 21 22 23 24 25 26 28 30 33 34 36 
 37 38 40 42 43 44 45 46 50 51 52 53 
 54 57 59 60 61 65 66 67 68 69 70 73 
 74 75 79 80 82 83 84 86 87 88 
 76 
 1 2 3 5 6 7 8 9 10 12 13 14 
 16 17 18 19 20 21 22 23 24 25 26 27 
 29 30 32 34 35 36 37 38 39 40 41 42 
 43 44 45 48 49 50 51 52 53 54 55 56 
 57 58 59 60 61 62 63 64 65 66 68 69 
 70 71 72 73 75 76 77 78 79 80 81 82 
 83 85 87 89 
 40 
 9 10 12 14 18 20 21 24 25 29 31 32 
 33 34 36 41 42 46 47 50 51 52 53 54 
 56 60 62 63 66 69 70 71 75 76 77 79 
 83 87 88 89 
 48 
 3 7 9 11 12 14 18 19 20 22 23 28 
 32 38 40 42 44 45 46 47 48 50 52 54 
 55 56 58 59 60 61 62 63 66 68 71 72 
 74 75 76 77 78 79 80 82 83 84 86 88 
 60 
 3 5 6 10 11 12 14 15 17 18 20 21 
 22 25 26 27 28 29 30 31 32 33 35 36 
 37 39 40 41 42 43 44 46 47 48 49 51 
 52 53 54 55 56 57 58 59 61 62 64 67 
 68 69 70 74 75 76 78 81 84 85 86 89 
 69 
 2 3 4 5 6 7 8 9 10 11 12 13 
 14 15 16 19 20 21 22 23 24 25 26 27 
 28 30 32 33 34 36 37 38 42 46 49 52 
 53 54 55 56 57 58 60 61 62 63 66 67 
 69 70 71 72 73 74 75 76 77 78 79 80 
 81 82 83 84 85 86 87 88 89 
 59 
 2 5 6 7 8 10 12 13 14 15 18 20 
 22 24 25 26 27 30 31 32 33 34 35 37 
 39 40 41 42 43 46 47 49 50 53 54 57 
 58 59 61 63 64 65 66 67 68 69 71 73 
 75 76 79 82 83 84 85 86 87 88 89 
 41 
 1 5 6 11 13 20 21 24 25 27 31 33 
 36 37 38 39 41 42 43 48 49 50 52 58 
 61 62 63 68 72 73 75 76 77 78 80 83 
 84 85 86 87 89 
 57 
 3 5 6 11 12 15 16 17 18 19 20 21 
 23 24 25 26 28 29 32 33 34 35 38 39 
 40 42 43 48 50 51 52 53 55 56 57 60 
 63 64 65 66 68 69 70 71 74 76 77 78 
 80 81 82 83 84 85 86 87 88 
 9 
 4 6 22 33 34 39 41 42 50 
 53 
 1 3 8 9 13 14 16 18 20 21 28 30 
 32 33 34 35 36 37 39 41 43 45 47 51 
 52 53 54 55 56 57 58 61 62 63 65 67 
 68 69 70 71 72 73 74 75 76 77 78 79 
 82 83 87 88 89 
 29 
 2 11 16 19 22 24 25 31 33 44 45 47 
 48 51 54 57 58 60 61 62 63 65 67 70 
 71 78 79 83 85 
 69 
 1 2 3 5 7 8 10 11 12 13 15 16 
 17 18 20 21 22 23 24 26 28 29 30 31 
 32 33 34 35 37 39 40 41 42 43 45 46 
 47 49 50 51 52 53 54 55 56 59 60 61 
 62 63 65 66 67 68 70 71 72 73 74 77 
 78 79 80 82 83 84 85 86 88 
 9 
 4 21 43 44 60 67 68 70 76 
 71 
 1 2 3 4 5 6 8 9 10 11 12 13 
 14 15 17 20 22 23 24 26 28 29 31 32 
 33 34 36 37 38 39 40 41 42 43 44 45 
 46 48 50 52 54 55 56 57 58 59 60 61 
 64 65 66 69 70 71 72 73 74 75 76 77 
 78 79 80 81 82 83 85 86 87 88 89 
 4 
 34 37 50 69 
 62 
 1 2 3 9 10 11 12 14 15 16 17 18 
 19 20 21 24 25 26 28 29 30 31 33 35 
 36 37 38 39 42 44 45 46 47 48 49 50 
 51 52 53 54 57 59 60 61 64 65 66 67 
 69 71 72 73 75 76 78 80 81 82 83 84 
 85 87 
 53 
 1 2 3 6 10 11 13 14 15 16 17 18 
 19 21 23 24 25 26 29 31 32 34 35 36 
 37 43 44 45 47 49 52 55 57 58 59 60 
 62 63 65 66 68 69 70 72 73 74 79 80 
 81 86 87 88 89 
 84 
 1 2 3 4 5 6 7 8 9 10 11 12 
 13 14 16 17 18 19 20 22 23 24 25 26 
 28 29 30 31 32 33 34 35 36 37 38 39 
 40 41 42 43 44 45 46 47 48 49 50 52 
 53 54 55 56 57 58 59 60 61 62 63 64 
 65 66 67 68 69 70 71 72 73 74 76 77 
 78 79 80 81 82 83 84 85 86 87 88 89 
 7 
 12 19 25 62 75 77 78 
 56 
 2 3 5 6 8 9 13 14 16 17 18 19 
 20 22 25 26 27 28 29 30 31 32 35 36 
 38 40 44 45 46 47 49 51 52 55 56 59 
 60 61 62 63 64 65 67 68 70 73 74 76 
 77 80 83 84 85 87 88 89 
 88 
 1 2 3 4 5 6 7 8 9 10 11 12 
 13 14 15 16 17 18 19 20 21 22 23 24 
 25 26 27 28 29 30 31 32 33 34 35 36 
 37 38 39 40 41 42 43 44 45 46 47 48 
 49 50 51 52 53 54 55 56 57 58 59 60 
 61 62 63 64 65 66 67 68 69 70 71 72 
 73 74 75 76 77 79 80 81 82 83 84 85 
 86 87 88 89 
 50 
 2 3 4 5 6 7 10 12 14 16 22 24 
 25 26 27 28 29 30 33 35 36 37 39 40 
 42 44 46 48 49 50 51 52 54 55 58 59 
 61 63 64 67 68 70 74 76 77 81 83 84 
 88 89 
 12 
 1 3 9 12 25 31 33 35 50 51 68 73 
 84 
 1 2 3 4 5 6 7 8 9 10 11 12 
 13 14 15 16 18 19 20 21 22 23 24 26 
 27 28 29 30 31 33 34 35 36 37 38 39 
 40 41 42 43 46 47 48 49 50 51 52 53 
 54 55 56 57 58 59 60 61 62 63 64 65 
 66 67 68 69 70 71 72 73 74 75 76 77 
 78 79 80 81 82 83 84 85 86 87 88 89 
 82 
 1 2 3 4 5 6 7 8 9 10 13 14 
 15 16 18 21 22 23 24 25 26 27 28 29 
 30 31 32 33 34 35 36 37 38 39 40 41 
 42 43 46 47 48 49 50 51 52 53 54 55 
 56 57 58 59 60 61 62 63 64 65 66 67 
 68 69 70 71 72 73 74 75 76 77 78 79 
 80 81 82 83 84 85 86 87 88 89 
 78 
 1 3 4 6 7 8 9 10 11 12 13 15 
 16 19 20 21 22 23 24 25 26 27 28 29 
 30 31 32 33 34 35 36 37 38 39 40 41 
 42 43 44 45 46 47 48 49 50 51 52 53 
 54 56 57 58 59 60 61 62 63 64 65 66 
 67 68 69 70 71 72 73 74 75 77 79 82 
 83 85 86 87 88 89 
 67 
 1 3 4 5 6 7 8 9 10 11 13 15 
 16 17 20 21 22 23 25 26 27 28 29 30 
 31 32 35 36 37 38 39 42 43 44 45 47 
 48 50 51 52 53 54 55 56 57 58 62 64 
 65 66 67 69 70 71 73 75 76 78 79 80 
 81 82 83 85 87 88 89 
 18 
 3 8 10 24 31 34 38 47 53 59 63 65 
 69 70 76 78 82 85 
 36 
 1 2 3 4 11 12 18 23 24 26 30 31 
 33 34 35 42 44 46 48 51 52 53 54 55 
 56 57 63 66 71 76 77 78 80 83 84 88 
 36 
 1 4 7 8 9 12 13 17 19 20 21 22 
 23 25 26 27 34 38 40 41 43 44 48 52 
 53 55 56 63 68 69 77 78 79 81 83 88 
 49 
 1 4 9 15 19 21 22 23 25 26 27 28 
 34 35 36 37 38 39 40 41 45 47 48 51 
 53 54 55 56 58 59 60 61 62 63 64 65 
 66 68 72 73 74 77 79 81 82 83 84 85 
 87 
 25 
 5 13 14 17 18 19 21 23 26 40 42 45 
 46 47 57 58 60 65 67 68 70 72 80 83 
 86 
 47 
 1 4 5 7 9 10 11 13 17 18 19 20 
 21 22 24 25 26 28 29 30 33 34 37 38 
 41 42 43 44 46 49 55 57 60 64 65 66 
 68 71 72 73 75 76 82 83 86 87 89 
 78 
 1 2 3 4 5 6 7 8 9 10 11 12 
 13 14 15 16 17 18 19 20 21 22 23 24 
 25 26 27 28 29 31 32 33 34 36 37 38 
 39 40 41 42 43 44 45 47 48 49 50 51 
 52 53 54 55 56 57 60 61 62 63 65 66 
 67 68 69 70 71 72 73 74 75 76 77 78 
 79 83 85 86 88 89 
 85 
 1 2 3 4 5 6 7 8 11 12 13 14 
 15 16 17 18 19 20 21 22 23 24 25 26 
 27 28 29 30 31 32 33 34 35 37 38 39 
 40 41 42 43 44 45 46 47 48 49 50 51 
 52 53 54 55 56 57 58 59 60 61 62 63 
 64 65 66 67 68 69 70 71 72 73 74 75 
 76 77 78 79 81 82 83 84 85 86 87 88 
 89 
 8 
 20 27 34 57 64 81 84 85 
 24 
 1 9 11 14 16 26 33 35 38 39 43 44 
 45 48 52 56 57 59 61 62 63 72 74 88 
 54 
 1 2 4 5 7 11 15 16 19 20 25 26 
 27 28 29 30 32 33 34 35 36 38 39 40 
 42 43 44 45 46 49 52 54 58 59 60 61 
 62 64 66 67 68 71 73 74 75 76 77 81 
 82 83 84 85 87 89 
 83 
 1 2 3 4 5 6 7 8 9 10 11 12 
 13 14 15 16 17 18 19 21 22 23 25 26 
 27 28 29 30 31 32 34 35 36 37 38 39 
 40 41 42 43 44 45 46 47 48 49 50 51 
 52 54 55 56 57 58 59 60 62 63 64 65 
 66 67 68 69 70 71 72 73 74 75 76 77 
 78 79 80 81 82 83 84 85 87 88 89 
 44 
 1 3 7 8 12 13 15 16 19 20 23 25 
 26 27 29 33 35 37 38 39 40 41 43 45 
 46 48 50 53 54 55 58 60 61 65 78 80 
 81 82 84 85 86 87 88 89 
 16 
 1 2 3 5 18 21 24 27 29 37 39 46 
 60 61 68 85 
 86 
 1 2 3 4 5 6 7 8 10 11 12 13 
 14 15 16 17 18 19 20 21 22 23 24 25 
 26 27 28 29 30 31 32 33 34 35 36 37 
 38 39 40 41 42 44 45 46 47 48 49 50 
 51 52 53 54 55 56 57 58 59 60 61 62 
 63 64 66 67 68 69 70 71 72 73 74 75 
 76 77 78 79 80 81 82 83 84 85 86 87 
 88 89 
 74 
 1 2 3 4 5 7 8 9 10 11 12 14 
 15 16 17 18 20 21 22 23 25 26 27 28 
 29 30 31 32 33 35 36 37 38 40 43 44 
 45 46 47 48 49 51 53 54 55 56 57 58 
 59 60 61 62 63 64 65 66 69 70 71 72 
 73 74 75 76 77 78 79 81 82 83 84 85 
 86 88 
 47 
 4 5 6 7 8 9 10 14 15 18 19 21 
 22 23 26 29 31 32 33 37 38 39 40 47 
 48 50 53 54 55 57 58 60 61 63 64 65 
 66 68 70 72 73 75 79 80 82 83 85 
 56 
 1 3 4 8 9 10 11 12 13 14 15 19 
 21 22 24 25 26 28 29 31 32 34 37 38 
 39 40 41 42 43 44 45 47 48 49 50 51 
 52 53 54 55 59 62 63 66 67 68 74 76 
 77 78 79 81 82 83 85 88 
 70 
 1 4 6 7 9 11 13 15 16 17 19 20 
 21 22 23 25 27 30 31 32 33 34 36 37 
 38 39 40 41 42 43 45 46 47 48 49 50 
 52 53 54 56 57 58 59 60 61 62 63 64 
 65 66 67 68 69 70 71 72 73 74 75 76 
 77 79 80 81 82 83 84 85 86 88 
 73 
 1 2 3 4 5 6 7 10 11 12 13 15 
 16 17 18 21 22 24 25 26 28 29 30 31 
 32 33 34 36 37 38 39 41 42 43 44 45 
 46 47 48 49 51 53 54 55 56 57 59 60 
 61 62 63 64 65 66 67 68 69 70 71 73 
 74 75 76 77 78 79 80 81 82 83 84 87 
 88 
 11 
 2 17 18 38 39 49 54 56 60 70 86 
 57 
 1 5 7 8 11 12 14 15 16 17 18 19 
 22 24 25 26 27 28 31 32 33 34 35 36 
 37 38 41 42 44 45 46 48 49 50 53 55 
 57 59 62 64 65 67 68 69 70 71 72 73 
 74 75 76 77 79 80 81 84 85 
 5 
 20 43 53 68 85 
 26 
 1 5 6 7 9 11 14 18 25 29 30 31 
 38 41 43 48 50 51 57 62 64 68 74 79 
 83 87 
 67 
 1 2 3 4 5 6 7 9 10 11 12 13 
 15 16 17 18 20 21 22 23 24 25 26 29 
 30 31 33 34 35 36 37 38 39 41 42 43 
 45 46 47 48 49 50 53 54 55 57 58 59 
 60 61 62 65 68 69 70 71 72 74 75 76 
 79 80 84 85 87 88 89 
 82 
 1 2 3 4 5 7 8 9 11 12 13 14 
 15 16 17 19 20 21 22 23 24 25 27 28 
 29 30 31 32 33 34 35 36 37 38 40 41 
 42 44 45 46 47 48 50 51 52 53 54 55 
 56 57 58 59 60 61 62 63 64 65 66 67 
 68 69 70 71 72 73 74 75 76 77 78 79 
 80 81 82 83 84 85 86 87 88 89 
 50 
 4 5 6 7 11 15 18 19 22 23 25 26 
 27 29 31 32 33 34 36 38 39 40 41 42 
 43 45 46 47 50 51 52 54 55 58 60 61 
 63 67 68 72 73 74 77 78 80 81 83 84 
 85 87 
 12 
 1 7 13 15 20 27 37 56 69 70 81 89 
 26 
 9 10 12 19 20 26 28 31 32 34 37 42 
 43 45 46 47 51 52 59 60 63 65 72 75 
 87 89 
 70 
 1 2 4 5 7 9 10 13 14 15 16 17 
 18 20 21 22 24 25 26 27 28 29 31 32 
 33 34 35 36 37 39 40 42 43 44 46 47 
 49 50 51 52 53 54 56 57 58 62 63 64 
 65 66 67 68 69 72 73 74 76 77 78 79 
 80 81 82 83 84 85 86 87 88 89 
 18 
 6 12 14 23 26 29 33 47 49 50 51 61 
 68 72 77 81 82 84 
 21 
 1 11 13 15 25 27 29 31 34 38 39 41 
 57 63 65 75 76 78 81 87 89 
 46 
 1 4 5 6 8 12 15 16 17 19 22 23 
 25 29 30 32 34 36 38 39 40 41 44 48 
 49 53 54 55 57 59 61 62 63 64 65 69 
 71 72 74 75 81 82 83 84 86 89 
 36 
 4 6 7 9 14 15 20 24 30 32 33 34 
 35 37 42 45 49 51 53 55 57 58 59 60 
 62 63 66 69 73 78 80 81 85 87 88 89 
 39 
 3 5 8 10 11 12 16 17 20 22 25 29 
 30 32 40 43 44 45 46 48 51 57 59 60 
 61 62 64 65 66 67 69 73 78 81 82 83 
 86 88 89 
 30 
 1 6 7 8 10 12 16 18 19 24 25 37 
 39 41 43 47 48 50 54 56 57 60 64 65 
 66 69 72 80 82 86 
 49 
 1 4 5 7 8 11 14 15 16 18 19 21 
 23 26 28 31 32 33 34 36 38 40 42 47 
 48 49 53 55 57 58 60 61 63 64 66 69 
 70 71 72 73 77 78 80 81 82 83 86 88 
 89 
 16 
 14 15 17 25 31 33 40 42 46 53 58 62 
 66 69 80 89 
 35 
 3 4 6 9 12 13 16 19 21 23 24 26 
 30 32 35 39 41 44 48 51 52 53 56 62 
 65 66 71 74 79 80 82 84 85 86 89 
 50 
 1 2 4 6 7 10 11 12 17 18 19 20 
 21 25 26 29 30 31 33 34 35 37 41 42 
 44 45 49 51 52 54 55 58 60 63 64 65 
 66 68 69 70 71 74 78 79 81 82 83 84 
 86 88 
 17 
 2 11 25 28 30 38 43 49 55 60 63 65 
 70 71 73 81 88 
 21 
 3 5 9 11 15 18 22 24 31 33 36 39 
 42 43 46 52 54 62 66 73 87 
 27 
 1 2 8 10 11 16 17 18 26 34 35 41 
 46 47 48 56 62 63 67 74 75 78 79 84 
 85 86 89 
 4 
 42 58 69 72 
 42 
 4 5 8 10 12 17 19 22 26 30 31 33 
 34 35 38 39 42 45 48 50 51 54 56 59 
 62 63 64 65 66 68 69 70 71 72 73 74 
 75 76 80 81 82 83 
 10 
 7 13 29 36 44 49 64 68 79 83 
 33 
 1 2 5 6 7 8 13 20 22 25 27 28 
 31 34 38 40 48 53 54 56 61 63 64 65 
 66 71 74 76 78 81 86 87 89 
 5 
 24 32 36 59 76 
 61 
 2 3 5 6 7 8 10 11 12 13 14 15 
 16 17 18 19 21 24 25 26 28 29 30 33 
 34 35 37 39 40 41 42 43 46 47 48 50 
 52 54 56 57 58 59 61 63 64 65 66 67 
 69 70 71 74 75 78 81 83 84 85 87 88 
 89 
 59 
 1 3 4 6 7 9 10 12 14 15 16 17 
 18 20 21 22 23 24 25 26 27 30 32 36 
 37 38 39 40 41 42 44 45 46 49 50 51 
 53 54 57 58 60 62 65 66 67 69 71 74 
 75 77 79 80 81 82 85 86 87 88 89 
 7 
 43 45 63 71 75 83 89 
 6 
 45 54 62 72 75 87 
 88 
 1 2 3 4 5 6 7 8 9 10 11 12 
 13 14 15 16 17 18 19 20 21 22 23 24 
 25 26 27 28 29 30 31 32 33 34 35 36 
 37 39 40 41 42 43 44 45 46 47 48 49 
 50 51 52 53 54 55 56 57 58 59 60 61 
 62 63 64 65 66 67 68 69 70 71 72 73 
 74 75 76 77 78 79 80 81 82 83 84 85 
 86 87 88 89 
 75 
 1 2 3 4 6 7 9 10 11 12 13 14 
 15 16 17 18 19 21 23 24 25 26 28 29 
 30 31 32 33 34 35 36 37 38 39 40 42 
 43 44 45 46 47 48 49 50 51 52 53 54 
 55 56 57 58 59 60 62 64 65 66 67 69 
 70 71 72 73 74 75 76 77 80 81 85 86 
 87 88 89 
 72 
 1 2 3 4 5 6 7 8 10 12 13 14 
 15 16 17 18 19 20 21 22 23 25 26 27 
 28 29 30 31 32 33 35 36 37 38 39 40 
 41 42 43 45 47 48 51 54 55 56 59 60 
 61 62 63 64 65 66 68 69 72 73 74 75 
 76 77 78 79 81 82 83 84 85 86 87 88 
 79 
 1 2 3 4 5 6 8 9 10 11 13 14 
 15 16 17 18 19 20 21 22 25 26 27 28 
 29 30 31 32 33 34 35 36 37 38 39 41 
 42 43 44 45 46 47 50 51 53 54 55 56 
 57 58 59 61 62 63 64 65 66 67 68 70 
 71 72 73 74 75 76 77 78 79 80 81 82 
 83 84 85 86 87 88 89 
 89 
 1 2 3 4 5 6 7 8 9 10 11 12 
 13 14 15 16 17 18 19 20 21 22 23 24 
 25 26 27 28 29 30 31 32 33 34 35 36 
 37 38 39 40 41 42 43 44 45 46 47 48 
 49 50 51 52 53 54 55 56 57 58 59 60 
 61 62 63 64 65 66 67 68 69 70 71 72 
 73 74 75 76 77 78 79 80 81 82 83 84 
 85 86 87 88 89 
 66 
 1 2 3 5 7 9 10 11 13 14 15 16 
 17 19 22 23 24 25 26 27 28 30 32 33 
 35 36 37 39 40 42 43 45 46 47 48 49 
 50 51 53 55 56 57 58 59 60 61 63 65 
 66 68 69 70 71 72 73 74 75 76 77 79 
 80 81 82 83 86 87 
 49 
 1 4 7 9 10 12 13 14 15 16 18 20 
 22 24 27 28 29 30 31 32 34 39 40 43 
 45 46 47 49 50 51 52 53 55 57 58 61 
 62 63 65 73 75 76 77 78 79 80 84 85 
 89 
 24 
 3 6 9 14 15 22 23 29 33 34 36 37 
 48 52 56 57 59 63 70 71 72 76 83 88 
 51 
 5 7 8 11 12 13 14 16 17 18 19 20 
 21 22 23 24 28 29 30 31 32 33 36 37 
 38 39 42 43 46 47 48 49 52 53 54 56 
 57 58 60 61 62 72 73 76 77 81 83 84 
 85 88 89 
 85 
 1 2 4 5 6 7 8 9 10 11 12 14 
 15 16 17 18 19 20 21 22 23 24 25 26 
 27 28 29 30 31 32 33 34 35 36 37 38 
 39 40 41 42 43 44 45 46 47 48 49 50 
 51 52 53 54 55 56 57 58 59 60 61 62 
 63 64 65 66 67 69 70 71 72 73 74 75 
 76 77 78 80 81 82 83 84 85 86 87 88 
 89 
 41 
 1 2 4 7 8 10 13 16 18 19 20 23 
 24 25 26 28 29 30 31 35 36 37 42 43 
 44 49 51 53 54 58 61 66 71 75 76 77 
 78 80 81 83 86 
 85 
 1 2 3 4 5 6 7 8 9 10 11 12 
 13 14 15 16 17 18 19 20 22 23 24 25 
 26 27 28 29 30 31 33 34 35 36 37 38 
 39 40 41 42 43 44 45 46 47 48 49 50 
 51 52 53 54 55 56 58 59 60 62 63 64 
 65 66 67 68 69 70 71 72 73 74 75 76 
 77 78 79 80 81 82 83 84 85 86 87 88 
 89 
 78 
 2 3 4 6 7 8 9 11 12 13 14 16 
 17 18 19 20 21 22 23 24 25 26 27 29 
 30 31 32 33 34 35 36 37 38 39 40 41 
 42 43 44 45 46 47 49 50 51 52 53 54 
 55 56 57 59 60 61 62 63 65 67 68 69 
 70 71 72 73 74 76 77 78 79 80 81 82 
 83 84 85 86 87 88 
 17 
 6 15 17 28 32 33 39 42 44 46 49 50 
 58 59 70 76 77 
 76 
 1 2 3 4 5 6 7 9 10 11 12 13 
 14 15 16 17 18 19 20 21 22 23 24 25 
 26 28 30 31 32 33 34 35 36 37 38 39 
 42 43 44 45 46 47 50 51 52 53 54 56 
 57 58 60 61 62 63 64 65 66 67 68 69 
 70 73 74 75 76 77 79 80 81 82 84 85 
 86 87 88 89 
 25 
 4 8 15 16 20 22 23 27 29 33 36 38 
 39 40 43 44 46 48 55 63 71 78 79 80 
 82 
 77 
 1 2 3 4 5 6 7 8 9 10 11 12 
 13 14 15 16 17 18 19 20 22 23 24 26 
 27 28 29 30 31 32 34 35 37 38 39 41 
 42 43 44 45 46 47 48 50 51 53 54 55 
 56 57 58 60 61 64 65 66 67 68 69 70 
 72 73 74 75 76 77 78 79 80 81 82 83 
 84 85 86 88 89 
 72 
 1 2 3 4 5 6 7 8 9 10 11 12 
 13 14 15 16 17 18 19 20 21 22 23 24 
 25 27 28 29 30 31 32 34 36 38 39 40 
 42 43 45 46 47 49 51 53 56 58 59 60 
 62 64 65 67 68 69 70 71 72 73 74 75 
 76 77 78 79 81 82 84 85 86 87 88 89 
 32 
 2 4 8 16 19 20 21 29 32 34 37 38 
 41 48 50 53 57 59 60 63 64 65 66 67 
 70 73 78 81 84 85 88 89 
 23 
 1 2 7 8 11 12 22 25 28 29 33 34 
 35 36 38 47 55 69 72 79 81 82 89 
 67 
 1 2 3 4 5 8 10 11 12 18 20 23 
 24 25 26 27 28 29 30 32 33 34 35 36 
 37 38 39 41 42 43 44 46 47 48 49 51 
 52 54 55 57 58 60 61 62 63 65 66 67 
 68 70 71 72 73 75 76 77 78 79 80 81 
 82 83 84 85 87 88 89 
 4 
 3 13 17 70 
 46 
 1 2 5 6 8 9 13 14 17 18 22 24 
 26 32 34 35 37 38 44 45 47 48 50 51 
 52 54 56 58 59 61 62 64 66 68 69 70 
 72 73 74 78 79 83 84 85 87 89 
 74 
 1 2 3 4 5 6 7 9 11 13 14 15 
 16 17 18 19 20 21 22 24 25 26 28 29 
 31 32 33 34 36 37 38 39 40 41 42 43 
 44 46 47 48 50 51 52 53 54 55 56 57 
 58 59 61 62 63 64 65 66 67 68 69 70 
 71 72 73 74 75 76 78 81 82 85 86 87 
 88 89 
 67 
 1 2 3 6 7 8 9 10 11 12 13 14 
 15 17 18 19 20 22 23 24 26 27 28 29 
 30 31 32 33 34 35 36 37 40 42 43 44 
 47 50 51 52 53 55 56 57 58 59 60 61 
 63 64 65 67 70 71 72 73 75 76 77 80 
 81 83 84 85 86 88 89 
 72 
 1 2 3 4 5 7 8 9 10 12 14 15 
 16 17 18 21 23 24 26 27 28 29 30 33 
 34 35 36 37 40 41 42 44 45 46 47 48 
 49 50 52 53 56 57 58 59 60 61 62 63 
 64 65 66 67 68 69 70 71 72 73 74 75 
 76 77 78 79 80 81 82 83 84 85 88 89 
 33 
 1 6 9 10 14 16 17 18 19 22 26 32 
 34 38 39 41 42 43 47 48 53 54 55 57 
 61 64 69 74 75 77 83 87 89 
 57 
 1 2 3 4 6 7 10 11 16 17 19 20 
 21 24 27 28 32 33 34 36 38 40 43 44 
 46 47 48 49 51 53 55 57 58 59 60 61 
 62 63 64 65 66 67 69 70 71 72 75 76 
 77 78 79 80 81 83 84 85 86 
 75 
 1 3 4 5 6 7 8 9 10 11 12 13 
 14 15 16 17 18 19 20 21 22 23 24 25 
 27 28 29 30 31 32 35 37 39 40 41 42 
 43 45 46 47 48 49 50 51 52 53 54 55 
 56 57 58 59 60 61 62 63 64 65 66 69 
 70 71 72 76 77 78 80 81 83 84 85 86 
 87 88 89 
 33 
 3 5 6 7 10 12 14 20 21 22 28 30 
 31 35 36 45 48 51 53 55 57 59 65 69 
 71 72 73 74 75 78 81 82 83 
 47 
 1 2 5 10 11 13 14 15 19 20 21 23 
 24 27 29 32 33 36 42 43 47 48 50 51 
 55 56 57 58 59 60 62 63 64 66 67 68 
 69 70 74 76 77 79 84 85 87 88 89 
 57 
 2 3 5 6 8 9 10 11 12 13 14 15 
 17 19 21 22 23 24 28 29 32 35 37 40 
 41 43 47 49 50 51 53 55 56 57 59 60 
 61 63 66 67 68 70 72 73 74 76 77 78 
 79 80 82 83 85 86 87 88 89 
 69 
 1 2 3 4 5 6 7 9 10 11 12 14 
 15 17 19 21 22 23 25 26 27 28 29 30 
 31 32 33 34 35 36 37 38 40 41 42 43 
 44 46 47 48 50 51 52 53 54 55 56 57 
 59 60 61 62 63 65 67 69 70 72 73 75 
 77 78 79 80 81 82 83 84 86 
 80 
 1 2 3 4 5 6 7 9 10 11 12 13 
 15 16 17 18 19 20 21 22 23 24 25 26 
 27 28 29 30 31 32 34 35 36 38 39 40 
 41 42 43 44 45 46 47 48 49 51 52 53 
 55 57 58 59 60 61 62 63 64 65 66 67 
 68 69 70 71 72 74 75 76 77 78 79 81 
 82 83 84 85 86 87 88 89 
 30 
 4 6 9 17 21 22 27 28 32 33 35 37 
 38 39 41 44 47 51 55 57 61 70 71 72 
 73 77 83 84 85 89 
 69 
 2 4 5 6 7 8 9 10 11 12 14 17 
 18 19 20 21 23 24 25 26 27 31 32 33 
 34 35 36 37 39 40 41 42 43 46 47 50 
 51 52 53 54 55 56 57 58 59 61 62 63 
 64 65 66 67 69 70 72 73 74 75 76 77 
 79 80 81 82 83 85 86 88 89 
 55 
 2 4 5 7 9 10 12 14 15 16 17 18 
 19 21 22 23 24 25 26 28 29 31 32 33 
 34 39 40 41 42 43 45 46 48 49 52 55 
 62 64 65 68 69 70 72 73 74 75 76 77 
 78 80 83 85 87 88 89 
 76 
 2 3 4 5 6 7 8 9 10 11 12 13 
 14 15 17 18 19 20 21 22 23 24 25 26 
 27 28 29 31 33 34 36 37 38 39 40 41 
 43 44 45 46 47 48 49 50 51 52 53 55 
 56 57 58 61 63 64 66 68 69 70 71 72 
 73 74 75 76 77 78 79 80 81 83 84 85 
 86 87 88 89 
 38 
 1 2 3 5 6 12 13 14 15 21 23 24 
 26 36 37 39 40 44 48 51 60 62 63 64 
 70 71 72 73 74 76 77 79 80 82 83 84 
 85 86 
 14 
 2 3 23 26 33 34 38 43 44 62 64 72 
 76 88 
 89 
 1 2 3 4 5 6 7 8 9 10 11 12 
 13 14 15 16 17 18 19 20 21 22 23 24 
 25 26 27 28 29 30 31 32 33 34 35 36 
 37 38 39 40 41 42 43 44 45 46 47 48 
 49 50 51 52 53 54 55 56 57 58 59 60 
 61 62 63 64 65 66 67 68 69 70 71 72 
 73 74 75 76 77 78 79 80 81 82 83 84 
 85 86 87 88 89 
 30 
 2 4 6 11 13 19 25 27 29 32 34 37 
 39 41 43 45 48 50 53 54 55 56 57 62 
 64 65 73 76 84 87 
 41 
 1 2 4 6 7 9 10 12 13 14 19 20 
 23 25 29 33 35 38 39 40 48 50 52 55 
 58 59 60 64 65 73 74 75 78 80 81 82 
 83 84 87 88 89 
 12 
 1 4 23 28 34 43 66 68 75 84 85 88 
 37 
 1 2 5 7 8 10 12 30 31 33 34 37 
 38 43 47 50 51 54 55 59 60 62 63 64 
 65 67 68 71 73 76 78 81 82 84 86 87 
 89 
 12 
 1 4 6 8 11 14 31 41 42 71 74 78 
 4 
 11 20 36 48 
 2 
 4 88 
 12 
 8 11 19 25 26 33 39 55 65 79 80 87 
 45 
 4 5 8 10 12 14 15 17 18 21 22 23 
 26 27 28 30 31 33 36 37 38 40 44 45 
 47 48 49 50 51 52 54 57 59 60 61 65 
 67 68 69 73 78 79 80 85 86 
 74 
 1 2 3 4 5 6 7 8 9 10 11 12 
 13 14 15 16 17 18 19 20 21 22 23 24 
 25 26 27 28 29 30 31 34 35 38 39 40 
 41 42 44 45 46 47 48 50 52 54 55 56 
 57 58 59 60 62 64 65 66 68 69 70 71 
 72 73 74 75 76 77 78 79 81 82 83 84 
 86 89 
 48 
 1 2 3 4 5 10 11 13 17 18 20 21 
 23 24 25 26 27 28 32 35 36 37 38 40 
 44 45 46 47 48 50 52 55 56 57 61 62 
 63 67 69 75 76 78 79 80 81 82 86 89 
 62 
 1 2 3 4 5 6 8 9 11 13 14 15 
 16 18 19 21 22 24 25 28 30 31 33 34 
 35 36 37 38 40 41 42 43 44 46 47 48 
 49 51 52 53 57 58 62 63 65 66 69 71 
 72 73 75 76 77 78 80 81 82 85 86 87 
 88 89 
 20 
 3 4 22 23 29 30 36 38 39 44 49 50 
 51 62 64 69 75 77 79 86 
 8 
 2 6 36 43 51 55 63 72 
 46 
 1 2 4 6 7 8 10 12 13 14 21 22 
 23 25 27 28 30 33 35 38 40 41 42 46 
 47 51 52 55 57 61 63 65 66 68 73 75 
 77 79 80 81 82 84 85 87 88 89 
 5 
 12 29 31 36 72 
 68 
 2 3 4 5 6 7 8 9 10 12 13 14 
 16 19 20 21 22 24 25 26 28 29 31 32 
 33 34 36 37 39 40 41 43 44 46 47 49 
 50 51 52 53 55 56 57 58 59 60 61 62 
 64 66 67 68 69 70 72 75 76 77 78 79 
 80 81 82 84 85 86 88 89 
 5 
 10 26 37 47 67 
 35 
 12 13 15 18 20 21 22 25 26 27 29 30 
 32 33 41 42 44 45 46 52 53 55 56 59 
 60 63 66 68 72 73 74 81 82 84 85 
 25 
 5 7 9 10 13 14 18 24 26 31 34 37 
 38 39 43 57 59 65 67 68 73 78 79 84 
 89 
 49 
 1 2 3 4 7 10 11 12 16 21 22 23 
 24 25 27 31 32 33 34 37 38 39 40 42 
 44 47 48 53 56 58 60 62 64 66 68 69 
 71 73 74 76 78 79 80 81 83 84 85 87 
 88 
 82 
 1 2 3 4 6 7 8 9 10 11 13 14 
 15 16 17 18 19 20 21 22 23 24 25 26 
 29 30 31 32 33 34 35 36 37 38 39 40 
 41 42 43 44 45 46 47 48 49 50 51 52 
 53 54 55 56 57 58 59 60 61 62 63 64 
 65 66 67 68 69 71 73 74 75 76 77 78 
 79 80 82 83 84 85 86 87 88 89 
 40 
 2 4 7 9 12 14 15 16 18 23 26 30 
 33 36 37 38 40 41 42 46 49 54 57 61 
 62 63 65 67 68 69 70 71 72 75 77 79 
 85 87 88 89 
 15 
 9 10 11 16 43 45 47 53 54 55 58 61 
 69 72 85 
 79 
 1 2 3 4 5 6 7 8 9 10 11 13 
 14 15 16 17 18 19 20 21 22 23 24 25 
 27 28 29 30 31 32 34 35 36 38 39 40 
 41 42 43 44 45 46 47 48 49 50 51 52 
 54 57 58 59 60 62 63 64 65 66 67 68 
 70 71 72 73 74 75 77 78 79 80 81 82 
 83 84 85 86 87 88 89 
 64 
 5 6 8 10 11 12 13 15 16 17 18 20 
 21 22 24 25 27 28 29 30 31 32 33 34 
 35 37 38 41 42 43 44 45 46 47 48 50 
 52 54 55 56 57 59 61 62 63 64 65 66 
 68 69 70 71 72 74 75 78 80 81 82 83 
 84 85 86 89 
 12 
 1 15 16 26 35 44 54 61 77 85 86 87 
 58 
 1 6 7 8 10 12 13 14 15 17 19 21 
 22 23 24 26 27 29 30 31 32 33 34 35 
 36 38 40 42 43 44 45 47 50 53 56 57 
 58 59 60 61 65 66 67 68 69 71 72 75 
 76 77 78 81 84 85 86 87 88 89 
 82 
 1 2 3 5 6 7 8 9 10 11 12 13 
 14 15 16 17 18 19 20 21 22 23 24 26 
 27 28 29 30 31 32 33 34 35 36 37 38 
 39 41 42 43 44 46 47 49 50 51 52 53 
 54 55 56 57 58 59 60 61 62 63 64 65 
 66 67 68 69 70 71 72 73 74 75 76 77 
 78 79 81 82 83 84 85 86 87 89 
 77 
 1 2 3 4 5 6 7 8 9 10 11 12 
 14 15 16 18 19 20 21 22 23 24 25 26 
 27 28 29 30 31 32 33 34 35 36 37 38 
 39 40 41 42 43 44 45 48 49 50 51 52 
 53 54 55 56 59 60 61 62 63 64 65 67 
 69 70 71 72 73 74 76 77 79 80 81 82 
 83 84 86 88 89 
 33 
 3 4 5 9 11 13 18 20 21 24 26 28 
 33 34 38 40 41 46 48 49 53 55 60 61 
 62 63 64 67 71 78 79 81 82 
 